\ This file has been generated by DOcplex
\ ENCODING=ISO-8859-1
\Problem name: recycling problem

Minimize
 obj: V
Subject To
 c1: V - 1.337952844903 a1_u0_x0 - 1.871109653598 a1_u1_x0
     + 1.106785807272 a1_u2_x0 >= 0
 c2: V - 2.179461379058 a1_u0_x0 - 2.811939849907 a1_u1_x0
     + 0.090982515644 a1_u2_x0 >= 0
 c3: V + 0.281930811081 a1_u0_x0 - 0.379160868928 a1_u1_x0
     - 2.486632074540 a1_u2_x0 >= 0
 c4: a1_u0_x0 + a1_u1_x0 + a1_u2_x0 = 1
 c5: a1_u0_x1 + a1_u1_x1 + a1_u2_x1 = 1
 c6: a1_u0_x2 + a1_u1_x2 + a1_u2_x2 = 1
 c7: a1_u0_x3 + a1_u1_x3 + a1_u2_x3 = 1

Bounds
       V Free
End
